50,40
123,3
12,3
321,2
55,12
144,55
204,20
204,20
204,20
204,20
204,20
204,20
204,20
204,20
204,20
204,20
204,20
204,20
204,20
204,20
204,20
204,20
204,20
204,20
204,20
204,20
204,20
204,20
204,20
204,20
204,20
204,20
204,20
204,20
204,20
204,20
204,20
204,20
204,20
204,20
204,20
204,20
